c description: Perfect Matching Principle on 
c generator: CNFgen (0.9.0)
c copyright: (C) 2012-2020 Massimo Lauria <massimo.lauria@uniroma1.it>
c url: https://massimolauria.net/cnfgen
c
p cnf 80 353
-1 -2 0
-1 -3 0
-2 -3 0
1 2 3 0
4 0
-5 -6 0
-5 -7 0
-5 -8 0
-6 -7 0
-6 -8 0
-7 -8 0
5 6 7 8 0
-9 -10 0
9 10 0
-9 -11 0
-9 -12 0
-9 -13 0
-9 -14 0
-11 -12 0
-11 -13 0
-11 -14 0
-12 -13 0
-12 -14 0
-13 -14 0
9 11 12 13 14 0
-15 -16 0
-15 -17 0
-16 -17 0
15 16 17 0
-1 -18 0
1 18 0
-15 -19 0
-15 -20 0
-15 -21 0
-19 -20 0
-19 -21 0
-20 -21 0
15 19 20 21 0
-22 -23 0
-22 -24 0
-22 -25 0
-22 -26 0
-22 -27 0
-22 -28 0
-23 -24 0
-23 -25 0
-23 -26 0
-23 -27 0
-23 -28 0
-24 -25 0
-24 -26 0
-24 -27 0
-24 -28 0
-25 -26 0
-25 -27 0
-25 -28 0
-26 -27 0
-26 -28 0
-27 -28 0
22 23 24 25 26 27 28 0
-22 -29 0
-22 -30 0
-22 -31 0
-22 -32 0
-22 -33 0
-29 -30 0
-29 -31 0
-29 -32 0
-29 -33 0
-30 -31 0
-30 -32 0
-30 -33 0
-31 -32 0
-31 -33 0
-32 -33 0
22 29 30 31 32 33 0
-16 -34 0
-16 -35 0
-34 -35 0
16 34 35 0
-2 -36 0
-2 -37 0
-36 -37 0
2 36 37 0
-38 -39 0
38 39 0
-11 -23 0
-11 -40 0
-11 -41 0
-11 -42 0
-11 -43 0
-23 -40 0
-23 -41 0
-23 -42 0
-23 -43 0
-40 -41 0
-40 -42 0
-40 -43 0
-41 -42 0
-41 -43 0
-42 -43 0
11 23 40 41 42 43 0
-44 -45 0
-44 -46 0
-44 -47 0
-45 -46 0
-45 -47 0
-46 -47 0
44 45 46 47 0
-10 -19 0
-10 -24 0
-10 -48 0
-10 -49 0
-10 -50 0
-19 -24 0
-19 -48 0
-19 -49 0
-19 -50 0
-24 -48 0
-24 -49 0
-24 -50 0
-48 -49 0
-48 -50 0
-49 -50 0
10 19 24 48 49 50 0
-12 -25 0
-12 -29 0
-12 -40 0
-12 -48 0
-12 -51 0
-12 -52 0
-12 -53 0
-12 -54 0
-12 -55 0
-25 -29 0
-25 -40 0
-25 -48 0
-25 -51 0
-25 -52 0
-25 -53 0
-25 -54 0
-25 -55 0
-29 -40 0
-29 -48 0
-29 -51 0
-29 -52 0
-29 -53 0
-29 -54 0
-29 -55 0
-40 -48 0
-40 -51 0
-40 -52 0
-40 -53 0
-40 -54 0
-40 -55 0
-48 -51 0
-48 -52 0
-48 -53 0
-48 -54 0
-48 -55 0
-51 -52 0
-51 -53 0
-51 -54 0
-51 -55 0
-52 -53 0
-52 -54 0
-52 -55 0
-53 -54 0
-53 -55 0
-54 -55 0
12 25 29 40 48 51 52 53 54 55 0
-30 -41 0
-30 -44 0
-30 -56 0
-30 -57 0
-41 -44 0
-41 -56 0
-41 -57 0
-44 -56 0
-44 -57 0
-56 -57 0
30 41 44 56 57 0
-3 -18 0
-3 -45 0
-18 -45 0
3 18 45 0
-5 -58 0
5 58 0
-59 -60 0
-59 -61 0
-60 -61 0
59 60 61 0
-31 -36 0
-31 -59 0
-31 -62 0
-31 -63 0
-36 -59 0
-36 -62 0
-36 -63 0
-59 -62 0
-59 -63 0
-62 -63 0
31 36 59 62 63 0
-17 -32 0
-17 -64 0
-17 -65 0
-17 -66 0
-32 -64 0
-32 -65 0
-32 -66 0
-64 -65 0
-64 -66 0
-65 -66 0
17 32 64 65 66 0
-20 -46 0
-20 -51 0
-20 -64 0
-20 -67 0
-20 -68 0
-20 -69 0
-46 -51 0
-46 -64 0
-46 -67 0
-46 -68 0
-46 -69 0
-51 -64 0
-51 -67 0
-51 -68 0
-51 -69 0
-64 -67 0
-64 -68 0
-64 -69 0
-67 -68 0
-67 -69 0
-68 -69 0
20 46 51 64 67 68 69 0
65 0
-49 -52 0
-49 -56 0
-49 -70 0
-52 -56 0
-52 -70 0
-56 -70 0
49 52 56 70 0
-6 -21 0
-6 -71 0
-21 -71 0
6 21 71 0
-38 -66 0
-38 -72 0
-66 -72 0
38 66 72 0
-7 -60 0
-7 -62 0
-7 -73 0
-60 -62 0
-60 -73 0
-62 -73 0
7 60 62 73 0
-67 -71 0
-67 -74 0
-71 -74 0
67 71 74 0
-26 -53 0
-26 -61 0
-26 -75 0
-26 -76 0
-53 -61 0
-53 -75 0
-53 -76 0
-61 -75 0
-61 -76 0
-75 -76 0
26 53 61 75 76 0
-34 -77 0
34 77 0
-27 -50 0
-27 -58 0
-27 -78 0
-27 -79 0
-50 -58 0
-50 -78 0
-50 -79 0
-58 -78 0
-58 -79 0
-78 -79 0
27 50 58 78 79 0
-4 -42 0
-4 -75 0
-42 -75 0
4 42 75 0
-57 -63 0
-57 -68 0
-57 -70 0
-57 -78 0
-57 -80 0
-63 -68 0
-63 -70 0
-63 -78 0
-63 -80 0
-68 -70 0
-68 -78 0
-68 -80 0
-70 -78 0
-70 -80 0
-78 -80 0
57 63 68 70 78 80 0
-8 -43 0
-8 -54 0
-8 -73 0
-8 -80 0
-43 -54 0
-43 -73 0
-43 -80 0
-54 -73 0
-54 -80 0
-73 -80 0
8 43 54 73 80 0
-13 -28 0
-13 -33 0
-13 -35 0
-13 -37 0
-13 -39 0
-28 -33 0
-28 -35 0
-28 -37 0
-28 -39 0
-33 -35 0
-33 -37 0
-33 -39 0
-35 -37 0
-35 -39 0
-37 -39 0
13 28 33 35 37 39 0
-47 -55 0
-47 -72 0
-47 -76 0
-55 -72 0
-55 -76 0
-72 -76 0
47 55 72 76 0
-14 -69 0
-14 -74 0
-14 -77 0
-14 -79 0
-69 -74 0
-69 -77 0
-69 -79 0
-74 -77 0
-74 -79 0
-77 -79 0
14 69 74 77 79 0
0